WARNING: for repeatability, setting FPU to use double precision
============================[ Problem Statistics ]=============================
|                                                                             |
|  Number of variables:           802                                         |
|  Number of clauses:           49551                                         |
|  Parse time:                   0.01 s                                       |
|                                                                             |
c ============================[ Search Statistics ]==============================
c | Conflicts |          ORIGINAL         |          LEARNT          | Progress |
c |           |    Vars  Clauses Literals |    Limit  Clauses Lit/Cl |          |
c ===============================================================================
c Switched to VSIDS.
c Switched to LRB.
c Switched to VSIDS.
c Switched to LRB.
c Switched to VSIDS.
c Switched to LRB.
c ===============================================================================
restarts                  : 8608
conflicts                 : 4126105        (4883 /sec)
decisions                 : 5523857        (0.00 % random) (6537 /sec)
propagations              : 244862927      (289778 /sec)
conflict literals         : 253194934      (38.17 % deleted)

conflicts w/ DIP found    : 2222656        (53.87 % of conflicts)
conflicts w/ dangerous DIP: 0              (0.00 % of conflicts)
conflicts w/ DIP-learning : 71             (0.00 % of conflicts)
decisions on ext vars     : 0              (0.00 % of decisions)
total ext vars            : 27          
tried delete ext vars     : 17          
deleted ext vars          : 17          
max ext vars              : 19          

Memory used               : 209.00 MB
CPU time                  : 845.002 s
DIP computation time      : 20.2643 s (2.40 % of total time)
ER_sel time               : 4.48125 s
ER_add time               : 0.000372 s
ER_delC time              : 0 s
ER_delV time              : 0.136765 s
ER_sub time               : 4.29646 s
ER_stat time              : 0 s

UNSATISFIABLE
